%chk=C6H5CH3.chk
#P B3LYP/def2tzvp nosymm Density=Current

Single-Point

0 1
C 0.91099631 0.00000000 0.00427725
C 0.19349167 1.19730125 0.00734300
C -1.19662177 1.20029486 0.00734300
C -1.89799658 -0.00000000 0.00631594
C -1.19662177 -1.20029486 0.00734300
C 0.19349167 -1.19730125 0.00734300
C 2.41726180 0.00000000 -0.02810302
H 0.73041592 2.13919046 0.01224741
H -1.73218916 2.14171530 0.01200744
H -2.98067333 -0.00000000 0.00921256
H -1.73218916 -2.14171530 0.01200744
H 0.73041592 -2.13919046 0.01224741
H 2.78755937 0.00000000 -1.05761813
H 2.82632628 0.88334269 0.46436137
H 2.82632628 -0.88334269 0.46436137

