! CAM-B3LYP Def2-TZVP NormalPrint AIM Hirshfeld NPA NBO TightSCF Printbasis PrintMOs ENGRAD
%output
 Print[P_Density]1
 Print[P_Hirshfeld]1
 Print[P_SpinDensity]1
 Print[P_Iter_P]1
 Print[P_NPA]1
end

* xyz  1 1
   C      0.586279    0.022739    0.019347
   C     -0.064791   -1.220590   -0.222201
   C     -1.419251   -1.265626   -0.224212
   C     -2.206304   -0.022033    0.005885
   C     -1.463783    1.248026    0.223324
   C     -0.109219    1.249869    0.209630
   H      0.534348   -2.108614   -0.372532
   H     -1.981804   -2.179401   -0.373463
   H     -2.055978    2.140441    0.385196
   H      0.466401    2.156012    0.343658
   O     -3.417327   -0.048369    0.013281
   C      2.089698    0.093322   -0.031620
   O      2.601478    0.996058   -0.633945
   O      2.679827   -0.921848    0.575116
   H      3.649435   -0.849402    0.500612
*



