! CAM-B3LYP Def2-TZVP NormalPrint AIM Hirshfeld NPA NBO TightSCF Printbasis PrintMOs ENGRAD
%output
 Print[P_Density]1
 Print[P_Hirshfeld]1
 Print[P_SpinDensity]1
 Print[P_Iter_P]1
 Print[P_NPA]1
end

* xyz  1 1
   C      0.411476    0.024480    0.000057
   C     -0.303733    1.223221    0.000003
   C     -1.686803    1.208748    0.000008
   C     -2.371838   -0.025492    0.000012
   C     -1.642880   -1.233016    0.000074
   C     -0.258022   -1.200510    0.000120
   H      0.241529    2.157810   -0.000059
   H     -2.220775    2.150240   -0.000013
   H     -2.143017   -2.192959    0.000143
   H      0.304998   -2.123131    0.000168
   Be    -4.001705   -0.053921   -0.000238
   C      1.911562    0.114770   -0.000001
   O      2.505906    1.158011    0.000062
   O      2.495023   -1.093490   -0.000151
   H      3.458082   -0.965652   -0.000212
*



