%chk=C6H5O-.chk
# opt freq b3lyp def2tzvp

opt

-1 1
 C                  0.03405101   -1.77627477    0.04253757
 C                  1.22801883   -1.04281135    0.02268309
 C                  1.19085680    0.31159223   -0.00519127
 C                 -0.04153994    0.97870529   -0.01415821
 C                 -1.23550775    0.24524193    0.00569940
 C                 -1.19834572   -1.10916169    0.03357156
 H                  2.16898109   -1.55216698    0.02952972
 H                  2.10247772    0.87160779   -0.02035260
 H                 -2.17647001    0.75459753   -0.00114846
 H                 -2.10996665   -1.66917729    0.04873091
 O                 -0.07604754    2.23636576   -0.04004103
 C                  0.07628058   -3.31536982    0.07420945
 O                 -0.99585378   -3.97398998    0.09204061
 O                  1.33382826   -3.99609750    0.08335637
 H                  1.24030872   -4.84692419   -0.35132517

