%chk=C6H4-NH-2.chk
# opt freq b3lyp def2tzvp

opt meta

0 1
 C                  1.23293728   -0.77971357    0.01917374
 C                  1.27580334    0.75857033    0.07786890
 C                  0.12253797    1.46992906    0.05517986
 C                 -1.23085688    0.74000737   -0.02929932
 C                 -1.27372292   -0.79827652   -0.08799475
 C                 -0.12045752   -1.50963521   -0.06530657
 N                  2.33378152   -1.45873779    0.04083090
 H                  2.21614904    1.26572366    0.13656698
 N                 -2.33170111    1.41903159   -0.05095658
 H                 -2.21406866   -1.30542987   -0.14669208
 H                 -0.15024108   -2.57844287   -0.10608811
 H                 -3.21052894    0.94505647   -0.10581301
 H                  2.30594647   -2.45762340    0.00271595
 C                  0.16540412    3.00821305    0.11387276
 O                 -0.90548506    3.66876052    0.09280206
 O                  1.42212792    3.68599749    0.19231729
 H                  1.35002829    4.54396571   -0.23229095

