%chk=C6H4-CH3-2.chk
#P B3LYP/def2tzvp nosymm Density=Current

Single-Point

0 1
C 1.41734015 0.00248065 -0.01091327
C 0.69389778 -1.19184232 -0.00620903
C -0.69389778 -1.19184232 0.00620903
C -1.41734015 0.00248065 0.01091327
C -0.69547983 1.19410760 0.00616109
C 0.69547983 1.19410760 -0.00616109
H 1.22545047 -2.13709593 -0.01108426
H -1.22545047 -2.13709593 0.01108426
H -1.22661867 2.13932447 0.01086030
H 1.22661867 2.13932447 -0.01086030
C 2.92373582 -0.00234330 0.00616109
C -2.92373582 -0.00234330 -0.00616109
H 3.32726420 -0.78269411 -0.64189072
H 3.32784847 0.95469869 -0.32586034
H 3.30699773 -0.18864887 1.01377060
H -3.32726420 -0.78269411 0.64189072
H -3.32784847 0.95469869 0.32586034
H -3.30699773 -0.18864887 -1.01377060

