%chk=C6H4O2.chk
#P B3LYP/def2tzvp nosymm Density=Current

Single-Point

0 1
C 0.00000000 1.43899360 0.00000000
C 1.26587017 0.66802593 0.00000000
C 1.26587017 -0.66802593 0.00000000
C 0.00000000 -1.43899360 0.00000000
C -1.26587017 -0.66802593 0.00000000
C -1.26587017 0.66802593 0.00000000
H 2.17696713 1.25374060 0.00000000
H 2.17696713 -1.25374060 0.00000000
H -2.17696713 -1.25374060 0.00000000
H -2.17696713 1.25374060 0.00000000
O 0.00000000 -2.65666095 0.00000000
O 0.00000000 2.65666095 0.00000000

