%chk=C6H5Be+.chk
#P B3LYP/def2tzvp nosymm Density=Current

Single-Point

1 1
C 0.000000 1.596758 0.000000 0
C 1.210910 0.908428 0.000000 0
C 1.221756 -0.476778 0.000000 0
C 0.000000 -1.184032 0.000000 0
C -1.221756 -0.476778 0.000000 0
C -1.210910 0.908428 0.000000 0
H 0.000000 2.679219 0.000000 0
H 2.147025 1.451250 0.000000 0
H 2.171840 -0.995567 0.000000 0
H -2.171840 -0.995567 0.000000 0
H -2.147025 1.451250 0.000000 0
Be 0.000000 -2.811684 0.00000 1


