%chk=C6H5O+.chk
#p opt freq b3lyp nosymm density=current def2tzvp

Single-Point

1 1
 C                  0.04312857   -1.75008834    0.01614517
 C                  1.26569633   -1.03717965   -0.02159916
 C                  1.29077698    0.31850457   -0.02972072
 C                 -0.03260435    1.07770473    0.00275220
 C                 -1.31346171    0.24910202    0.04274555
 C                 -1.21585370   -1.10331257    0.04745225
 H                  0.07177424   -2.81969285    0.02120852
 H                  2.18815964   -1.57889202   -0.04416364
 H                  2.22118002    0.84616894   -0.05836518
 H                 -2.27078091    0.72645888    0.06662800
 O                 -0.06629402    2.33563955   -0.00321021
 C                 -2.49988579   -1.95257448    0.08764932
 O                 -3.62541544   -1.39046662    0.11572649
 O                 -2.41319033   -3.37993376    0.09306955
 H                 -3.18840651   -3.74924115   -0.33617622

