%chk=C6H5BH3-.chk
#P B3LYP/def2tzvp nosymm Density=Current

Single-Point

-1 1
C -1.891370 0.000000 0.008888 
C -1.178556 1.196707 0.010046 
C 0.213762 1.186154 0.010046 
C 0.971866 0.000000 0.004252 
C 0.213762 -1.186154 0.010046 
C -1.178556 -1.196707 0.010046 
H -2.976484 0.000000 0.012741 
H -1.713310 2.142907 0.015098 
H 0.745723 2.133212 0.017815 
H 0.745723 -2.133212 0.017815 
H -1.713310 -2.142907 0.015098 
B 2.592641 0.000000 -0.038454
H 3.041081 1.009317 0.505481 
H 3.041081 -1.009317 0.505481 
H 2.960844 0.000000 -1.217213


