%chk=C6H5CH2-o.chk
# opt=(tight,modredundant) freq b3lyp def2tzvp

opt

-1 1
 C                 -0.03809803   -1.85071742   -0.04251670
 C                  1.18921818   -1.17429723   -0.03399641
 C                  1.21703365    0.22668724   -0.01422810
 C                  0.01753290    0.95125152   -0.00298032
 C                 -1.20978332    0.27483139   -0.01150468
 C                 -1.23759879   -1.12615308   -0.03127262
 H                  2.10506363   -1.72751818   -0.04258128
 H                  2.15411682    0.74314906   -0.00772236
 H                 -2.12562876    0.82805234   -0.00291940
 H                 -2.17468195   -1.64261491   -0.03777775
 C                  0.04809935    2.49079483    0.01874731
 H                  0.05949829    3.01254419    0.95284991
 H                  0.05793814    3.03872816   -0.90025882
 C                 -0.06866448   -3.39026081   -0.06423843
 O                  1.00843823   -4.04088996   -0.07433876
 O                 -1.32102796   -4.08048551   -0.07293096
 H                 -1.22252751   -4.92772816    0.36761138

D 12 11 4 5 90.0 F
D 13 11 4 5 90.0 F

