%chk=C6H5CH2+.chk
#P B3LYP/def2tzvp nosymm Density=Current

Single-Point

1 1
C 0.00000000 -1.79437962 0.00000000
C 1.23044901 -1.11629352 0.00000000
C 1.24108004 0.25280749 0.00000000
C 0.00000000 0.97913438 0.00000000
C -1.24108004 0.25280749 0.00000000
C -1.23044901 -1.11629352 0.00000000
H 0.00000000 -2.87809572 0.00000000
H 2.15459644 -1.67761959 0.00000000
H 2.17268486 0.80452323 0.00000000
H -2.17268486 0.80452323 0.00000000
H -2.15459644 -1.67761959 0.00000000
C 0.00000000 2.34328792 0.00000000
H 0.92473686 2.90893239 0.00000000
H -0.92473686 2.90893239 0.00000000



