! CAM-B3LYP Def2-TZVP NormalPrint AIM Hirshfeld NPA NBO TightSCF Printbasis PrintMOs ENGRAD
%output
 Print[P_Density]1
 Print[P_Hirshfeld]1
 Print[P_SpinDensity]1
 Print[P_Iter_P]1
 Print[P_NPA]1
end

* xyz  1 1
   C      0.032175   -1.759109   -0.025154
   C      1.264707   -1.056138   -0.029034
   C      1.255018    0.299911   -0.003616
   C     -0.045930    1.026687    0.027775
   C     -1.303688    0.227538    0.030018
   C     -1.243018   -1.130253    0.003752
   H      0.054800   -2.843554   -0.045408
   H      2.190108   -1.616387   -0.052120
   H      2.153429    0.905399   -0.004656
   H     -2.248018    0.760368    0.052767
   O     -0.082907    2.236194    0.050877
   C     -2.532687   -1.919308    0.006285
   O     -3.602847   -1.388777    0.031232
   O     -2.295319   -3.234254   -0.022433
   H     -3.141001   -3.716121   -0.020142
*



