! CAM-B3LYP Def2-TZVP NormalPrint AIM Hirshfeld NPA NBO TightSCF Printbasis PrintMOs ENGRAD
%output
 Print[P_Density]1
 Print[P_Hirshfeld]1
 Print[P_SpinDensity]1
 Print[P_Iter_P]1
 Print[P_NPA]1
end

* xyz  1 1
   C      0.717541    0.027102   -0.000052
   C      0.014421    1.231634    0.000108
   C     -1.375830    1.235481    0.000122
   C     -1.980525    0.001809    0.000006
   C     -1.350887   -1.220836   -0.000137
   C      0.040608   -1.193067   -0.000164
   H      0.566475    2.161638    0.000194
   H     -1.947047    2.153240    0.000229
   H     -1.893198   -2.157518   -0.000221
   H      0.594964   -2.120235   -0.000262
   O     -3.483083    0.028290    0.000043
   H     -3.899200   -0.333859   -0.805479
   H     -3.899163   -0.333986    0.805528
   C      2.218519    0.105124   -0.000085
   O      2.820868    1.142931   -0.000262
   O      2.789700   -1.108824    0.000318
   H      3.754213   -0.991930    0.000432
*
