%chk=C6H4-NH2-2.chk
#P B3LYP/def2tzvp nosymm Density=Current

Single-Point

0 1
C 1.41618356 0.00000000 0.00068964
C 0.69391873 1.19497899 -0.00068964
C -0.69391873 1.19497899 0.00068964
C -1.41618356 0.00000000 -0.00068964
C -0.69391873 -1.19497899 0.00068964
C 0.69391873 -1.19497899 -0.00068964
H 3.25185986 0.82986429 0.31054592
H 3.25185986 -0.82986429 0.31054592
H 1.22419096 2.14078682 -0.00752106
H -1.22419096 2.14078682 0.00752106
N -2.82022536 0.00000000 0.06772003
H -1.22419096 -2.14078682 0.00752106
H 1.22419096 -2.14078682 -0.00752106
N 2.82022536 -0.00000000 -0.06772003
H -3.25185986 0.82986429 -0.31054592
H -3.25185986 -0.82986429 -0.31054592

